30
5
652378
0
0
51 48 59 57 53
1
0
56 49 61 58 52
2
0
51 50 59 56 55
3
0
49 52 68 59 56
4
0
55 50 62 58 55
5
0
54 49 60 59 51
6
0
54 49 62 55 50
7
0
51 50 58 58 53
8
0
54 52 61 55 52
9
0
54 51 62 54 53
10
0
52 55 61 56 52
11
0
52 50 58 58 51
12
0
55 51 60 59 51
13
0
50 48 59 56 55
14
0
53 49 62 56 51
15
0
54 52 62 62 53
16
0
50 49 61 57 48
17
0
52 50 65 55 52
18
0
49 48 59 55 47
19
0
54 49 61 58 51
20
0
54 53 61 59 51
21
0
50 49 61 53 57
22
0
49 50 59 58 53
23
0
50 50 60 52 52
24
0
53 52 63 57 48
25
0
53 57 60 53 55
26
0
50 47 60 53 55
27
0
51 50 59 57 50
28
0
50 48 58 54 53
29
0
53 50 61 58 53
